\ Model PDSTSP
\ LP format - for model browsing. Use MPS format to capture full model detail.
Minimize
  Z
Subject To
 C1_1: 18.68154169226941 X_0_1 + 20.6155281280883 X_0_2
   + 16.1245154965971 X_0_3 + 18.11077027627483 X_0_4
   + 15.13274595042156 X_0_5 + 19 X_0_6 + 16 X_0_7
   + 18.11077027627483 X_0_8 + 20.09975124224178 X_0_9
   + 16.76305461424021 X_0_10 + 2 X_1_2 + 3.605551275463989 X_1_3 + 3 X_1_4
   + 4.242640687119285 X_1_5 + 5.099019513592784 X_1_6
   + 5.385164807134504 X_1_7 + 7 X_1_8 + 7.280109889280518 X_1_9
   + 10.19803902718557 X_1_10 + 18.68154169226941 X_1_11 + 2 X_2_1
   + 5 X_2_3 + 3.605551275463989 X_2_4 + 5.830951894845301 X_2_5
   + 5.099019513592784 X_2_6 + 6.403124237432849 X_2_7
   + 7.280109889280518 X_2_8 + 7 X_2_9 + 10.77032961426901 X_2_10
   + 20.6155281280883 X_2_11 + 3.605551275463989 X_3_1 + 5 X_3_2 + 2 X_3_4
   + X_3_5 + 3.605551275463989 X_3_6 + 2 X_3_7 + 4.47213595499958 X_3_8
   + 5.656854249492381 X_3_9 + 7 X_3_10 + 16.1245154965971 X_3_11 + 3 X_4_1
   + 3.605551275463989 X_4_2 + 2 X_4_3 + 3 X_4_5 + 2.23606797749979 X_4_6
   + 2.82842712474619 X_4_7 + 4 X_4_8 + 4.47213595499958 X_4_9
   + 7.280109889280518 X_4_10 + 18.11077027627483 X_4_11
   + 4.242640687119285 X_5_1 + 5.830951894845301 X_5_2 + X_5_3 + 3 X_5_4
   + 4.47213595499958 X_5_6 + 2.23606797749979 X_5_7 + 5 X_5_8
   + 6.403124237432849 X_5_9 + 7.071067811865476 X_5_10
   + 15.13274595042156 X_5_11 + 5.099019513592784 X_6_1
   + 5.099019513592784 X_6_2 + 3.605551275463989 X_6_3
   + 2.23606797749979 X_6_4 + 4.47213595499958 X_6_5 + 3 X_6_7
   + 2.23606797749979 X_6_8 + 2.23606797749979 X_6_9
   + 5.830951894845301 X_6_10 + 19 X_6_11 + 5.385164807134504 X_7_1
   + 6.403124237432849 X_7_2 + 2 X_7_3 + 2.82842712474619 X_7_4
   + 2.23606797749979 X_7_5 + 3 X_7_6 + 2.82842712474619 X_7_8
   + 4.47213595499958 X_7_9 + 5 X_7_10 + 16 X_7_11 + 7 X_8_1
   + 7.280109889280518 X_8_2 + 4.47213595499958 X_8_3 + 4 X_8_4 + 5 X_8_5
   + 2.23606797749979 X_8_6 + 2.82842712474619 X_8_7 + 2 X_8_9
   + 3.605551275463989 X_8_10 + 18.11077027627483 X_8_11
   + 7.280109889280518 X_9_1 + 7 X_9_2 + 5.656854249492381 X_9_3
   + 4.47213595499958 X_9_4 + 6.403124237432849 X_9_5
   + 2.23606797749979 X_9_6 + 4.47213595499958 X_9_7 + 2 X_9_8 + 5 X_9_10
   + 20.09975124224178 X_9_11 + 10.19803902718557 X_10_1
   + 10.77032961426901 X_10_2 + 7 X_10_3 + 7.280109889280518 X_10_4
   + 7.071067811865476 X_10_5 + 5.830951894845301 X_10_6 + 5 X_10_7
   + 3.605551275463989 X_10_8 + 5 X_10_9 + 16.76305461424021 X_10_11 - Z
   <= 0
 C2_1: 18.68154169226941 Y_1 + 19 Y_6 + 18.11077027627483 Y_8 - Z <= 0
 C3_1: X_0_1 + X_2_1 + X_3_1 + X_4_1 + X_5_1 + X_6_1 + X_7_1 + X_8_1
   + X_9_1 + X_10_1 + Y_1 = 1
 C3_2: X_0_2 + X_1_2 + X_3_2 + X_4_2 + X_5_2 + X_6_2 + X_7_2 + X_8_2
   + X_9_2 + X_10_2 = 1
 C3_3: X_0_3 + X_1_3 + X_2_3 + X_4_3 + X_5_3 + X_6_3 + X_7_3 + X_8_3
   + X_9_3 + X_10_3 = 1
 C3_4: X_0_4 + X_1_4 + X_2_4 + X_3_4 + X_5_4 + X_6_4 + X_7_4 + X_8_4
   + X_9_4 + X_10_4 = 1
 C3_5: X_0_5 + X_1_5 + X_2_5 + X_3_5 + X_4_5 + X_6_5 + X_7_5 + X_8_5
   + X_9_5 + X_10_5 = 1
 C3_6: X_0_6 + X_1_6 + X_2_6 + X_3_6 + X_4_6 + X_5_6 + X_7_6 + X_8_6
   + X_9_6 + X_10_6 + Y_6 = 1
 C3_7: X_0_7 + X_1_7 + X_2_7 + X_3_7 + X_4_7 + X_5_7 + X_6_7 + X_8_7
   + X_9_7 + X_10_7 = 1
 C3_8: X_0_8 + X_1_8 + X_2_8 + X_3_8 + X_4_8 + X_5_8 + X_6_8 + X_7_8
   + X_9_8 + X_10_8 + Y_8 = 1
 C3_9: X_0_9 + X_1_9 + X_2_9 + X_3_9 + X_4_9 + X_5_9 + X_6_9 + X_7_9
   + X_8_9 + X_10_9 = 1
 C3_10: X_0_10 + X_1_10 + X_2_10 + X_3_10 + X_4_10 + X_5_10 + X_6_10
   + X_7_10 + X_8_10 + X_9_10 = 1
 C4_1: X_0_1 + X_0_2 + X_0_3 + X_0_4 + X_0_5 + X_0_6 + X_0_7 + X_0_8
   + X_0_9 + X_0_10 + X_0_11 = 1
 C5_1: X_0_11 + X_1_11 + X_2_11 + X_3_11 + X_4_11 + X_5_11 + X_6_11
   + X_7_11 + X_8_11 + X_9_11 + X_10_11 = 1
 C6_1: X_0_1 - X_1_2 - X_1_3 - X_1_4 - X_1_5 - X_1_6 - X_1_7 - X_1_8
   - X_1_9 - X_1_10 - X_1_11 + X_2_1 + X_3_1 + X_4_1 + X_5_1 + X_6_1
   + X_7_1 + X_8_1 + X_9_1 + X_10_1 = 0
 C6_2: X_0_2 + X_1_2 - X_2_1 - X_2_3 - X_2_4 - X_2_5 - X_2_6 - X_2_7
   - X_2_8 - X_2_9 - X_2_10 - X_2_11 + X_3_2 + X_4_2 + X_5_2 + X_6_2
   + X_7_2 + X_8_2 + X_9_2 + X_10_2 = 0
 C6_3: X_0_3 + X_1_3 + X_2_3 - X_3_1 - X_3_2 - X_3_4 - X_3_5 - X_3_6
   - X_3_7 - X_3_8 - X_3_9 - X_3_10 - X_3_11 + X_4_3 + X_5_3 + X_6_3
   + X_7_3 + X_8_3 + X_9_3 + X_10_3 = 0
 C6_4: X_0_4 + X_1_4 + X_2_4 + X_3_4 - X_4_1 - X_4_2 - X_4_3 - X_4_5
   - X_4_6 - X_4_7 - X_4_8 - X_4_9 - X_4_10 - X_4_11 + X_5_4 + X_6_4
   + X_7_4 + X_8_4 + X_9_4 + X_10_4 = 0
 C6_5: X_0_5 + X_1_5 + X_2_5 + X_3_5 + X_4_5 - X_5_1 - X_5_2 - X_5_3
   - X_5_4 - X_5_6 - X_5_7 - X_5_8 - X_5_9 - X_5_10 - X_5_11 + X_6_5
   + X_7_5 + X_8_5 + X_9_5 + X_10_5 = 0
 C6_6: X_0_6 + X_1_6 + X_2_6 + X_3_6 + X_4_6 + X_5_6 - X_6_1 - X_6_2
   - X_6_3 - X_6_4 - X_6_5 - X_6_7 - X_6_8 - X_6_9 - X_6_10 - X_6_11
   + X_7_6 + X_8_6 + X_9_6 + X_10_6 = 0
 C6_7: X_0_7 + X_1_7 + X_2_7 + X_3_7 + X_4_7 + X_5_7 + X_6_7 - X_7_1
   - X_7_2 - X_7_3 - X_7_4 - X_7_5 - X_7_6 - X_7_8 - X_7_9 - X_7_10
   - X_7_11 + X_8_7 + X_9_7 + X_10_7 = 0
 C6_8: X_0_8 + X_1_8 + X_2_8 + X_3_8 + X_4_8 + X_5_8 + X_6_8 + X_7_8
   - X_8_1 - X_8_2 - X_8_3 - X_8_4 - X_8_5 - X_8_6 - X_8_7 - X_8_9 - X_8_10
   - X_8_11 + X_9_8 + X_10_8 = 0
 C6_9: X_0_9 + X_1_9 + X_2_9 + X_3_9 + X_4_9 + X_5_9 + X_6_9 + X_7_9
   + X_8_9 - X_9_1 - X_9_2 - X_9_3 - X_9_4 - X_9_5 - X_9_6 - X_9_7 - X_9_8
   - X_9_10 - X_9_11 + X_10_9 = 0
 C6_10: X_0_10 + X_1_10 + X_2_10 + X_3_10 + X_4_10 + X_5_10 + X_6_10
   + X_7_10 + X_8_10 + X_9_10 - X_10_1 - X_10_2 - X_10_3 - X_10_4 - X_10_5
   - X_10_6 - X_10_7 - X_10_8 - X_10_9 - X_10_11 = 0
 C7_1: 12 X_1_2 + U_1 - U_2 <= 11
 C7_2: 12 X_1_3 + U_1 - U_3 <= 11
 C7_3: 12 X_1_4 + U_1 - U_4 <= 11
 C7_4: 12 X_1_5 + U_1 - U_5 <= 11
 C7_5: 12 X_1_6 + U_1 - U_6 <= 11
 C7_6: 12 X_1_7 + U_1 - U_7 <= 11
 C7_7: 12 X_1_8 + U_1 - U_8 <= 11
 C7_8: 12 X_1_9 + U_1 - U_9 <= 11
 C7_9: 12 X_1_10 + U_1 - U_10 <= 11
 C7_10: 12 X_1_11 + U_1 - U_11 <= 11
 C7_11: 12 X_2_1 - U_1 + U_2 <= 11
 C7_12: 12 X_2_3 + U_2 - U_3 <= 11
 C7_13: 12 X_2_4 + U_2 - U_4 <= 11
 C7_14: 12 X_2_5 + U_2 - U_5 <= 11
 C7_15: 12 X_2_6 + U_2 - U_6 <= 11
 C7_16: 12 X_2_7 + U_2 - U_7 <= 11
 C7_17: 12 X_2_8 + U_2 - U_8 <= 11
 C7_18: 12 X_2_9 + U_2 - U_9 <= 11
 C7_19: 12 X_2_10 + U_2 - U_10 <= 11
 C7_20: 12 X_2_11 + U_2 - U_11 <= 11
 C7_21: 12 X_3_1 - U_1 + U_3 <= 11
 C7_22: 12 X_3_2 - U_2 + U_3 <= 11
 C7_23: 12 X_3_4 + U_3 - U_4 <= 11
 C7_24: 12 X_3_5 + U_3 - U_5 <= 11
 C7_25: 12 X_3_6 + U_3 - U_6 <= 11
 C7_26: 12 X_3_7 + U_3 - U_7 <= 11
 C7_27: 12 X_3_8 + U_3 - U_8 <= 11
 C7_28: 12 X_3_9 + U_3 - U_9 <= 11
 C7_29: 12 X_3_10 + U_3 - U_10 <= 11
 C7_30: 12 X_3_11 + U_3 - U_11 <= 11
 C7_31: 12 X_4_1 - U_1 + U_4 <= 11
 C7_32: 12 X_4_2 - U_2 + U_4 <= 11
 C7_33: 12 X_4_3 - U_3 + U_4 <= 11
 C7_34: 12 X_4_5 + U_4 - U_5 <= 11
 C7_35: 12 X_4_6 + U_4 - U_6 <= 11
 C7_36: 12 X_4_7 + U_4 - U_7 <= 11
 C7_37: 12 X_4_8 + U_4 - U_8 <= 11
 C7_38: 12 X_4_9 + U_4 - U_9 <= 11
 C7_39: 12 X_4_10 + U_4 - U_10 <= 11
 C7_40: 12 X_4_11 + U_4 - U_11 <= 11
 C7_41: 12 X_5_1 - U_1 + U_5 <= 11
 C7_42: 12 X_5_2 - U_2 + U_5 <= 11
 C7_43: 12 X_5_3 - U_3 + U_5 <= 11
 C7_44: 12 X_5_4 - U_4 + U_5 <= 11
 C7_45: 12 X_5_6 + U_5 - U_6 <= 11
 C7_46: 12 X_5_7 + U_5 - U_7 <= 11
 C7_47: 12 X_5_8 + U_5 - U_8 <= 11
 C7_48: 12 X_5_9 + U_5 - U_9 <= 11
 C7_49: 12 X_5_10 + U_5 - U_10 <= 11
 C7_50: 12 X_5_11 + U_5 - U_11 <= 11
 C7_51: 12 X_6_1 - U_1 + U_6 <= 11
 C7_52: 12 X_6_2 - U_2 + U_6 <= 11
 C7_53: 12 X_6_3 - U_3 + U_6 <= 11
 C7_54: 12 X_6_4 - U_4 + U_6 <= 11
 C7_55: 12 X_6_5 - U_5 + U_6 <= 11
 C7_56: 12 X_6_7 + U_6 - U_7 <= 11
 C7_57: 12 X_6_8 + U_6 - U_8 <= 11
 C7_58: 12 X_6_9 + U_6 - U_9 <= 11
 C7_59: 12 X_6_10 + U_6 - U_10 <= 11
 C7_60: 12 X_6_11 + U_6 - U_11 <= 11
 C7_61: 12 X_7_1 - U_1 + U_7 <= 11
 C7_62: 12 X_7_2 - U_2 + U_7 <= 11
 C7_63: 12 X_7_3 - U_3 + U_7 <= 11
 C7_64: 12 X_7_4 - U_4 + U_7 <= 11
 C7_65: 12 X_7_5 - U_5 + U_7 <= 11
 C7_66: 12 X_7_6 - U_6 + U_7 <= 11
 C7_67: 12 X_7_8 + U_7 - U_8 <= 11
 C7_68: 12 X_7_9 + U_7 - U_9 <= 11
 C7_69: 12 X_7_10 + U_7 - U_10 <= 11
 C7_70: 12 X_7_11 + U_7 - U_11 <= 11
 C7_71: 12 X_8_1 - U_1 + U_8 <= 11
 C7_72: 12 X_8_2 - U_2 + U_8 <= 11
 C7_73: 12 X_8_3 - U_3 + U_8 <= 11
 C7_74: 12 X_8_4 - U_4 + U_8 <= 11
 C7_75: 12 X_8_5 - U_5 + U_8 <= 11
 C7_76: 12 X_8_6 - U_6 + U_8 <= 11
 C7_77: 12 X_8_7 - U_7 + U_8 <= 11
 C7_78: 12 X_8_9 + U_8 - U_9 <= 11
 C7_79: 12 X_8_10 + U_8 - U_10 <= 11
 C7_80: 12 X_8_11 + U_8 - U_11 <= 11
 C7_81: 12 X_9_1 - U_1 + U_9 <= 11
 C7_82: 12 X_9_2 - U_2 + U_9 <= 11
 C7_83: 12 X_9_3 - U_3 + U_9 <= 11
 C7_84: 12 X_9_4 - U_4 + U_9 <= 11
 C7_85: 12 X_9_5 - U_5 + U_9 <= 11
 C7_86: 12 X_9_6 - U_6 + U_9 <= 11
 C7_87: 12 X_9_7 - U_7 + U_9 <= 11
 C7_88: 12 X_9_8 - U_8 + U_9 <= 11
 C7_89: 12 X_9_10 + U_9 - U_10 <= 11
 C7_90: 12 X_9_11 + U_9 - U_11 <= 11
 C7_91: 12 X_10_1 - U_1 + U_10 <= 11
 C7_92: 12 X_10_2 - U_2 + U_10 <= 11
 C7_93: 12 X_10_3 - U_3 + U_10 <= 11
 C7_94: 12 X_10_4 - U_4 + U_10 <= 11
 C7_95: 12 X_10_5 - U_5 + U_10 <= 11
 C7_96: 12 X_10_6 - U_6 + U_10 <= 11
 C7_97: 12 X_10_7 - U_7 + U_10 <= 11
 C7_98: 12 X_10_8 - U_8 + U_10 <= 11
 C7_99: 12 X_10_9 - U_9 + U_10 <= 11
 C7_100: 12 X_10_11 + U_10 - U_11 <= 11
Bounds
 1 <= U_1 <= 12
 1 <= U_2 <= 12
 1 <= U_3 <= 12
 1 <= U_4 <= 12
 1 <= U_5 <= 12
 1 <= U_6 <= 12
 1 <= U_7 <= 12
 1 <= U_8 <= 12
 1 <= U_9 <= 12
 1 <= U_10 <= 12
 1 <= U_11 <= 12
Binaries
 X_0_1 X_0_2 X_0_3 X_0_4 X_0_5 X_0_6 X_0_7 X_0_8 X_0_9 X_0_10 X_0_11 X_1_2
 X_1_3 X_1_4 X_1_5 X_1_6 X_1_7 X_1_8 X_1_9 X_1_10 X_1_11 X_2_1 X_2_3 X_2_4
 X_2_5 X_2_6 X_2_7 X_2_8 X_2_9 X_2_10 X_2_11 X_3_1 X_3_2 X_3_4 X_3_5 X_3_6
 X_3_7 X_3_8 X_3_9 X_3_10 X_3_11 X_4_1 X_4_2 X_4_3 X_4_5 X_4_6 X_4_7 X_4_8
 X_4_9 X_4_10 X_4_11 X_5_1 X_5_2 X_5_3 X_5_4 X_5_6 X_5_7 X_5_8 X_5_9 X_5_10
 X_5_11 X_6_1 X_6_2 X_6_3 X_6_4 X_6_5 X_6_7 X_6_8 X_6_9 X_6_10 X_6_11 X_7_1
 X_7_2 X_7_3 X_7_4 X_7_5 X_7_6 X_7_8 X_7_9 X_7_10 X_7_11 X_8_1 X_8_2 X_8_3
 X_8_4 X_8_5 X_8_6 X_8_7 X_8_9 X_8_10 X_8_11 X_9_1 X_9_2 X_9_3 X_9_4 X_9_5
 X_9_6 X_9_7 X_9_8 X_9_10 X_9_11 X_10_1 X_10_2 X_10_3 X_10_4 X_10_5 X_10_6
 X_10_7 X_10_8 X_10_9 X_10_11 Y_1 Y_6 Y_8
End
